rbao water minimization                 
   1.00000000000000     
     6.1397337914000003    0.0000000000000000    0.0000000000000000
    -3.0698668957000002    5.3171654357999998    0.0000000000000000
     0.0000000000000000    0.0000000000000000   29.9662370682000017
   Ga   Mg   N    H 
    14     1    14     2
Selective dynamics
  0.3201762142235125  0.1546205537228143  0.4087578963357376   T   T   T
  0.3305041635780697  0.1677202967270830  0.5866825078943876   F   F   F
  0.3354269958560914  0.6741511562355924  0.4085391046266363   T   T   T
  0.3392648171437713  0.6672831315944876  0.5909443710561320   F   F   F
  0.8377762530326719  0.1506608837281163  0.4092855896133148   T   T   T
  0.8315017772047284  0.1585538057069158  0.5918853775540143   F   F   F
  0.8477608786805171  0.6920188212168765  0.4086654181035198   T   T   T
  0.8323859832769216  0.6689360378234142  0.5834414012108837   F   F   F
  0.1644845123638277  0.3371773042224930  0.4970992140434873   F   F   F
  0.1599570627883790  0.3410240409718167  0.6630390292998807   T   T   T
  0.1665560993907320  0.8302283388150329  0.4963030681881690   F   F   F
  0.1283845652555569  0.8076138251920155  0.6650908587599456   T   T   T
  0.6680943836601969  0.3337612712518592  0.4977439753747532   F   F   F
  0.6898413685294794  0.3667973857058288  0.6659983589054429   T   T   T
  0.6677617622623018  0.8352059340794469  0.4980277581612214   F   F   F
  0.3341456837826371  0.1682768594862694  0.4755702519653511   F   F   F
  0.3339628824249170  0.1651309830539568  0.6558092036451559   T   T   T
  0.3318766874643870  0.6666765201445202  0.4745128379988230   F   F   F
  0.3568870186225482  0.6921932841441413  0.6571574268467878   T   T   T
  0.8324556203792710  0.1725994584082997  0.4735437529119579   F   F   F
  0.8076699522789236  0.1389402511828508  0.6582335965249545   T   T   T
  0.8330774153658282  0.6613325361308782  0.4737979860837171   F   F   F
  0.1710570915561465  0.3382503243932936  0.3816655159749885   T   T   T
  0.1617150241691476  0.3348872584065887  0.5653680230975198   F   F   F
  0.1731319154003889  0.8364270414661831  0.3830534898912829   T   T   T
  0.1709086094558003  0.8321980372165356  0.5653569870329989   F   F   F
  0.6679413242891385  0.3285323898275934  0.5663892167016797   F   F   F
  0.6619955569269017  0.8306833686366897  0.3838175040371070   T   T   T
  0.6677796331687134  0.8328700009973673  0.5662938412616256   F   F   F
  0.1585948863007372  0.3429366354282195  0.7157679653607737   T   T   T
  0.1713348375519404  0.3373311360553066  0.3477322744150621   T   T   T

