/net/hulk/PMD/skwon/GaN/Wurtzite/vasp/U_
   1.00000000000000     
     6.1397337914000003    0.0000000000000000    0.0000000000000000
    -3.0698668957000002    5.3171654357999998    0.0000000000000000
     0.0000000000000000    0.0000000000000000    9.9887456894000000
   Ga   Mg   N 
    15     1    16
Direct
  0.3333350119999992  0.1666650029999985  0.2482683835868258
  0.3333350119999992  0.1666650029999985  0.7508254557480925
  0.3353527972826598  0.6676739106413336  0.2493274402140457
  0.3330470717611789  0.6665210478805932  0.7506088244487898
  0.8323261493586713  0.1646472177173379  0.2493274402140457
  0.8334790121194118  0.1669529432388188  0.7506088244487898
  0.8323261493586713  0.6676739106413336  0.2493274402140457
  0.8334790121194118  0.6665210478805932  0.7506088244487898
  0.1669594280018742  0.3330405869981234  0.4994596942955951
  0.1654188255313116  0.3345811894686861  0.9995327563309786
  0.1669594280018742  0.8339238920037531  0.4994596942955951
  0.1654188255313116  0.8308426870626349  0.9995327563309786
  0.6660761679962519  0.3330405869981234  0.4994596942955951
  0.6691573729373701  0.3345811894686861  0.9995327563309786
  0.6666650180000033  0.8333350420000016  0.4980996235024833
  0.6666650180000033  0.8333350420000016  0.0003835286314171
  0.3333350119999992  0.1666650029999985  0.4366665048403036
  0.3333350119999992  0.1666650029999985  0.9391488963104067
  0.3321204599933907  0.6660577419966955  0.4383027176289218
  0.3291459248018143  0.6645704744009109  0.9367884599362384
  0.8339423180033094  0.1678795550066070  0.4383027176289218
  0.8354295855990941  0.1708540901981834  0.9367884599362384
  0.8339423180033094  0.6660577419966955  0.4383027176289218
  0.8354295855990941  0.6645704744009109  0.9367884599362384
  0.1663846417976274  0.3336153732023703  0.1880736083536760
  0.1671395437880889  0.3328604712119088  0.6873580646539281
  0.1663846417976274  0.8327743195952593  0.1880736083536760
  0.1671395437880889  0.8342841235761895  0.6873580646539281
  0.6672257404047457  0.3336153732023703  0.1880736083536760
  0.6657159364238154  0.3328604712119088  0.6873580646539281
  0.6666650180000033  0.8333350420000016  0.1915337427107815
  0.6666650180000033  0.8333350420000016  0.6867191670831687
 
  0.00000000E+00  0.00000000E+00  0.00000000E+00
  0.00000000E+00  0.00000000E+00  0.00000000E+00
  0.00000000E+00  0.00000000E+00  0.00000000E+00
  0.00000000E+00  0.00000000E+00  0.00000000E+00
  0.00000000E+00  0.00000000E+00  0.00000000E+00
  0.00000000E+00  0.00000000E+00  0.00000000E+00
  0.00000000E+00  0.00000000E+00  0.00000000E+00
  0.00000000E+00  0.00000000E+00  0.00000000E+00
  0.00000000E+00  0.00000000E+00  0.00000000E+00
  0.00000000E+00  0.00000000E+00  0.00000000E+00
  0.00000000E+00  0.00000000E+00  0.00000000E+00
  0.00000000E+00  0.00000000E+00  0.00000000E+00
  0.00000000E+00  0.00000000E+00  0.00000000E+00
  0.00000000E+00  0.00000000E+00  0.00000000E+00
  0.00000000E+00  0.00000000E+00  0.00000000E+00
  0.00000000E+00  0.00000000E+00  0.00000000E+00
  0.00000000E+00  0.00000000E+00  0.00000000E+00
  0.00000000E+00  0.00000000E+00  0.00000000E+00
  0.00000000E+00  0.00000000E+00  0.00000000E+00
  0.00000000E+00  0.00000000E+00  0.00000000E+00
  0.00000000E+00  0.00000000E+00  0.00000000E+00
  0.00000000E+00  0.00000000E+00  0.00000000E+00
  0.00000000E+00  0.00000000E+00  0.00000000E+00
  0.00000000E+00  0.00000000E+00  0.00000000E+00
  0.00000000E+00  0.00000000E+00  0.00000000E+00
  0.00000000E+00  0.00000000E+00  0.00000000E+00
  0.00000000E+00  0.00000000E+00  0.00000000E+00
  0.00000000E+00  0.00000000E+00  0.00000000E+00
  0.00000000E+00  0.00000000E+00  0.00000000E+00
  0.00000000E+00  0.00000000E+00  0.00000000E+00
  0.00000000E+00  0.00000000E+00  0.00000000E+00
  0.00000000E+00  0.00000000E+00  0.00000000E+00
