k-points for bandstructure G-M-K-G-A-L-H-A
70
line
reciprocal
0.00000 0.00000 0.00000    1
0.50000 0.00000 0.00000    1

0.50000 0.00000 0.00000    1
0.33333 0.33333 0.00000    1

0.33333 0.33333 0.00000    1
0.00000 0.00000 0.00000    1

0.00000 0.00000 0.00000    1
0.00000 0.00000 0.50000    1

0.00000 0.00000 0.50000    1
0.50000 0.00000 0.50000    1

0.50000 0.00000 0.50000    1
0.33333 0.33333 0.50000    1

0.33333 0.33333 0.50000    1
0.00000 0.00000 0.50000    1

