/net/hulk/PMD/skwon/GaN/Wurtzite/vasp/U_
   1.00000000000000     
     6.1397337914000003    0.0000000000000000    0.0000000000000000
    -3.0698668957000002    5.3171654357999998    0.0000000000000000
     0.0000000000000000    0.0000000000000000   29.9662370682000017
   Ga   Mg   N 
    14     1    14
Selective dynamics
  0.3509329975201836  0.1757819371401167  0.3923423438074109
  0.3333350119999992  0.1666650029999985  0.5238147843599990
  0.3337366748614936  0.6676373669689226  0.3924404465881089
  0.3333350119999992  0.6666650180000033  0.5238147843599990
  0.8257208703093554  0.1737122048320769  0.3937482372931147
  0.8333350420000016  0.1666650029999985  0.5238147843599990
  0.8241902108709213  0.6510116419770675  0.3935639070900821
  0.8333350420000016  0.6666650180000033  0.5238147843599990
  0.1666650029999985  0.3333350119999992  0.4761852127800026
  0.1601475379260112  0.3395236648112301  0.6049127116375782
  0.1666650029999985  0.8333350420000016  0.4761852127800026
  0.1372963568971121  0.8058530362906096  0.6078886451896983
  0.6666650180000033  0.3333350119999992  0.4761852127800026
  0.6936285466852888  0.3621086116272320  0.6079513279114392
  0.6666650180000033  0.8333350420000016  0.4761852127800026
  0.3333350119999992  0.1666650029999985  0.4644988260499971
  0.3351858078595051  0.1644230987127124  0.5978381540509450
  0.3333350119999992  0.6666650180000033  0.4644988260499971
  0.3532075322067700  0.6822424972041690  0.5925820835138587
  0.8333350420000016  0.1666650029999985  0.4644988260499971
  0.8176122272416125  0.1465402340419836  0.5925301286962094
  0.8333350420000016  0.6666650180000033  0.4644988260499971
  0.1648161820637186  0.3307648453157398  0.3760411356371844
  0.1666650029999985  0.3333350119999992  0.5121283976300006
  0.1637445459100215  0.8348162144845324  0.3758114926065673
  0.1666650029999985  0.8333350420000016  0.5121283976300006
  0.6666650180000033  0.3333350119999992  0.5121283976300006
  0.6699576568947997  0.8353184840044352  0.3758181957480752
  0.6666650180000033  0.8333350420000016  0.5121283976300006
