SYSTEM = /net/hulk/PMD/skwon/GaN/Wurtzite/vasp/U_Gad_6.7/bulk
ENCUT = 500
ISTART = 1
GGA = PE
ICHARG = 2 
#LORBIT = 11
LWAVE = False
#LCHARG = True
#LVTOT = False
#MAGMOM = 6*0.6
NELM = 200
PREC = Accurate
ALGO = Fast
#LDIPOL = True
#DIPOL =  0.5 0.5 0.288
#IDIPOL = 3
IVDW = 12

ISIF = 2
IBRION = 2
NSW = 1
EDIFF = 1E-6
EDIFFG = -1E-2
ISPIN = 2

LREAL = auto 
LORBIT = 11
ISMEAR = 0 #0.1 for doped?
SIGMA = 0.05 #0.05 is highest recommended for semiconductor

LDAU      = .TRUE.
LDAUTYPE  = 2  # 2: The simplified (rotationally invariant) approach to the LSDA+U, only the difference (U-J) is meaningful.
LDAUL     = 2 2 -1  # The l-quantum number for which the on-site interaction is added. (-1 : no on-site interaction is added.)
LDAUU = 6.7 0.00 0.00
LDAUJ     = 0.00 0.00 0.00  # the strength of the effective on-site exchange interactions in eV
LDAUPRINT = 2  # write occupancy matrix + potential matrix
LMAXMIX   = 4  # L(S)DA+U calculations require in many cases an increase of LMAXMIX to 4 for d-electrons (or 6 for f-elements) in order to obtain fast convergence to the groundstate.

LPLANE = .TRUE.
NCORE = 4
LSCALU = .FALSE.
NSIM = 4
Symprec = 10e-5 
