/net/hulk/PMD/skwon/GaN/Wurtzite/vasp/U_
   1.00000000000000     
     6.1397337914000003    0.0000000000000000    0.0000000000000000
    -3.0698668957000002    5.3171654357999998    0.0000000000000000
     0.0000000000000000    0.0000000000000000    9.9887456894000000
   Ga   Mg   N 
    15     1    16
Direct
  0.3333350119999992  0.1666650029999985  0.2482683835868246
  0.3333350119999992  0.1666650029999985  0.7508254557480895
  0.3353527972826609  0.6676739106413343  0.2493274402140456
  0.3330470717611804  0.6665210478805937  0.7506088244487893
  0.8323261493586707  0.1646472177173368  0.2493274402140456
  0.8334790121194112  0.1669529432388173  0.7506088244487893
  0.8323261493586707  0.6676739106413343  0.2493274402140456
  0.8334790121194112  0.6665210478805937  0.7506088244487893
  0.1669594280018734  0.3330405869981243  0.4994596942955937
  0.1654188255313136  0.3345811894686840  0.9995327563309800
  0.1669594280018734  0.8339238920037513  0.4994596942955937
  0.1654188255313136  0.8308426870626319  0.9995327563309800
  0.6660761679962537  0.3330405869981243  0.4994596942955937
  0.6691573729373731  0.3345811894686840  0.9995327563309800
  0.6666650180000033  0.8333350420000016  0.4980996235024860
  0.6666650180000033  0.8333350420000016  0.0003835286314198
  0.3333350119999992  0.1666650029999985  0.4366665048403066
  0.3333350119999992  0.1666650029999985  0.9391488963104071
  0.3321204599933882  0.6660577419966978  0.4383027176289184
  0.3291459248018120  0.6645704744009099  0.9367884599362418
  0.8339423180033072  0.1678795550066096  0.4383027176289184
  0.8354295855990951  0.1708540901981857  0.9367884599362418
  0.8339423180033072  0.6660577419966978  0.4383027176289184
  0.8354295855990951  0.6645704744009099  0.9367884599362418
  0.1663846417976270  0.3336153732023707  0.1880736083536780
  0.1671395437880916  0.3328604712119060  0.6873580646539257
  0.1663846417976270  0.8327743195952585  0.1880736083536780
  0.1671395437880916  0.8342841235761879  0.6873580646539257
  0.6672257404047465  0.3336153732023707  0.1880736083536780
  0.6657159364238171  0.3328604712119060  0.6873580646539257
  0.6666650180000033  0.8333350420000016  0.1915337427107807
  0.6666650180000033  0.8333350420000016  0.6867191670831677
 
  0.00000000E+00  0.00000000E+00  0.00000000E+00
  0.00000000E+00  0.00000000E+00  0.00000000E+00
  0.00000000E+00  0.00000000E+00  0.00000000E+00
  0.00000000E+00  0.00000000E+00  0.00000000E+00
  0.00000000E+00  0.00000000E+00  0.00000000E+00
  0.00000000E+00  0.00000000E+00  0.00000000E+00
  0.00000000E+00  0.00000000E+00  0.00000000E+00
  0.00000000E+00  0.00000000E+00  0.00000000E+00
  0.00000000E+00  0.00000000E+00  0.00000000E+00
  0.00000000E+00  0.00000000E+00  0.00000000E+00
  0.00000000E+00  0.00000000E+00  0.00000000E+00
  0.00000000E+00  0.00000000E+00  0.00000000E+00
  0.00000000E+00  0.00000000E+00  0.00000000E+00
  0.00000000E+00  0.00000000E+00  0.00000000E+00
  0.00000000E+00  0.00000000E+00  0.00000000E+00
  0.00000000E+00  0.00000000E+00  0.00000000E+00
  0.00000000E+00  0.00000000E+00  0.00000000E+00
  0.00000000E+00  0.00000000E+00  0.00000000E+00
  0.00000000E+00  0.00000000E+00  0.00000000E+00
  0.00000000E+00  0.00000000E+00  0.00000000E+00
  0.00000000E+00  0.00000000E+00  0.00000000E+00
  0.00000000E+00  0.00000000E+00  0.00000000E+00
  0.00000000E+00  0.00000000E+00  0.00000000E+00
  0.00000000E+00  0.00000000E+00  0.00000000E+00
  0.00000000E+00  0.00000000E+00  0.00000000E+00
  0.00000000E+00  0.00000000E+00  0.00000000E+00
  0.00000000E+00  0.00000000E+00  0.00000000E+00
  0.00000000E+00  0.00000000E+00  0.00000000E+00
  0.00000000E+00  0.00000000E+00  0.00000000E+00
  0.00000000E+00  0.00000000E+00  0.00000000E+00
  0.00000000E+00  0.00000000E+00  0.00000000E+00
  0.00000000E+00  0.00000000E+00  0.00000000E+00
