/net/hulk/PMD/skwon/GaN/Wurtzite/vasp/U_ -- in P1.1
1.0
        6.1397337914         0.0000000000         0.0000000000
       -3.0698668957         5.3171654358         0.0000000000
        0.0000000000         0.0000000000         29.9662370682
   Ga    Mg    N
   14    1     14
Selective Dynamics
     0.333335012         0.166665003         0.42855564404
     0.333335012         0.166665003         0.52381478436
     0.333335012         0.666665018         0.42855564404
     0.333335012         0.666665018         0.52381478436
     0.833335042         0.166665003         0.42855564404
     0.833335042         0.166665003         0.52381478436
     0.833335042         0.666665018         0.42855564404
     0.833335042         0.666665018         0.52381478436
     0.166665003         0.333335012         0.47618521278
     0.166665003         0.333335012         0.57144435595
     0.166665003         0.833335042         0.47618521278
     0.166665003         0.833335042         0.57144435595
     0.666665018         0.333335012         0.47618521278
     0.666665018         0.333335012         0.57144435595
     0.666665018         0.833335042         0.47618521278
     0.333335012         0.166665003         0.46449882605
     0.333335012         0.166665003         0.55975796922
     0.333335012         0.666665018         0.46449882605
     0.333335012         0.666665018         0.55975796922
     0.833335042         0.166665003         0.46449882605
     0.833335042         0.166665003         0.55975796922
     0.833335042         0.666665018         0.46449882605
     0.166665003         0.333335012         0.41686925160
     0.166665003         0.333335012         0.51212839763
     0.166665003         0.833335042         0.41686925160
     0.166665003         0.833335042         0.51212839763
     0.666665018         0.333335012         0.51212839763
     0.666665018         0.833335042         0.41686925160
     0.666665018         0.833335042         0.51212839763