/net/hulk/PMD/skwon/GaN/Wurtzite/vasp/U_
   1.00000000000000     
     6.1397337914000003    0.0000000000000000    0.0000000000000000
    -3.0698668957000002    5.3171654357999998    0.0000000000000000
     0.0000000000000000    0.0000000000000000   29.9662370682000017
   Ga   Mg   N 
    14     1    14
Selective dynamics
Direct
  0.3120034911398050  0.1549033576708770  0.4120695102914025   T   T   T
  0.3333350119999992  0.1666650029999985  0.5831399956700025   T   T   T
  0.3323271078886934  0.6684122076499447  0.4123442064473055   T   T   T
  0.3333350119999992  0.6666650180000033  0.5831399956700025   T   T   T
  0.8465758512110496  0.1503952647530710  0.4139783149376157   T   T   T
  0.8333350420000016  0.1666650029999985  0.5831399956700025   T   T   T
  0.8510196168885374  0.6988679139014989  0.4139691416734670   T   T   T
  0.8333350420000016  0.6666650180000033  0.5831399956700025   T   T   T
  0.1666650029999985  0.3333350119999992  0.4998066623300019   T   T   T
  0.1566591878820489  0.3433051713740071  0.6628768246018633   T   T   T
  0.1666650029999985  0.8333350420000016  0.4998066623300019   T   T   T
  0.1326840478967100  0.8069547051797101  0.6629301656145218   T   T   T
  0.6666650180000033  0.3333350119999992  0.4998066623300019   T   T   T
  0.6912355735372899  0.3626395650605890  0.6637345960141032   T   T   T
  0.6666650180000033  0.8333350420000016  0.4998066623300019   T   T   T
  0.3333350119999992  0.1666650029999985  0.4793600043299975   T   T   T
  0.3319271787800240  0.1674080829641727  0.6529261263851922   T   T   T
  0.3333350119999992  0.6666650180000033  0.4793600043299975   T   T   T
  0.3531034162871628  0.6853423667416677  0.6510628347614884   T   T   T
  0.8333350420000016  0.1666650029999985  0.4793600043299975   T   T   T
  0.8144150574486543  0.1443688563825786  0.6513196591418028   T   T   T
  0.8333350420000016  0.6666650180000033  0.4793600043299975   T   T   T
  0.1702487434012471  0.3384943991974108  0.3894858928765138   T   T   T
  0.1666650029999985  0.3333350119999992  0.5626933376600007   T   T   T
  0.1713533611404259  0.8339661516391715  0.3874672406224852   T   T   T
  0.1666650029999985  0.8333350420000016  0.5626933376600007   T   T   T
  0.6666650180000033  0.3333350119999992  0.5626933376600007   T   T   T
  0.6613008445524947  0.8298814713000500  0.3880564922730870   T   T   T
  0.6666650180000033  0.8333350420000016  0.5626933376600007   T   T   T