/net/hulk/PMD/skwon/GaN/Wurtzite/vasp/U_
   1.00000000000000     
     6.1605110026185503    0.0000000000000000   -0.0000000000000000
    -3.0802555013092752    5.3351590285347932    0.0000000000000000
     0.0000000000000000    0.0000000000000000    9.9461780022839310
   Ga   N 
    16    16
Direct
  0.3333350119999992  0.1666650029999985  0.2493119649004596
  0.3333350119999992  0.1666650029999985  0.7493119499004619
  0.3333350119999992  0.6666650180000033  0.2493119649004596
  0.3333350119999992  0.6666650180000033  0.7493119499004619
  0.8333350420000016  0.1666650029999985  0.2493119649004596
  0.8333350420000016  0.1666650029999985  0.7493119499004619
  0.8333350420000016  0.6666650180000033  0.2493119649004596
  0.8333350420000016  0.6666650180000033  0.7493119499004619
  0.1666650029999985  0.3333350119999992  0.4993119499004620
  0.1666650029999985  0.3333350119999992  0.9993119499004619
  0.1666650029999985  0.8333350420000016  0.4993119499004620
  0.1666650029999985  0.8333350420000016  0.9993119499004619
  0.6666650180000033  0.3333350119999992  0.4993119499004620
  0.6666650180000033  0.3333350119999992  0.9993119499004619
  0.6666650180000033  0.8333350420000016  0.4993119499004620
  0.6666650180000033  0.8333350420000016  0.9993119499004619
  0.3333350119999992  0.1666650029999985  0.4381880500995380
  0.3333350119999992  0.1666650029999985  0.9381880500995381
  0.3333350119999992  0.6666650180000033  0.4381880500995380
  0.3333350119999992  0.6666650180000033  0.9381880500995381
  0.8333350420000016  0.1666650029999985  0.4381880500995380
  0.8333350420000016  0.1666650029999985  0.9381880500995381
  0.8333350420000016  0.6666650180000033  0.4381880500995380
  0.8333350420000016  0.6666650180000033  0.9381880500995381
  0.1666650029999985  0.3333350119999992  0.1881880350995404
  0.1666650029999985  0.3333350119999992  0.6881880500995381
  0.1666650029999985  0.8333350420000016  0.1881880350995404
  0.1666650029999985  0.8333350420000016  0.6881880500995381
  0.6666650180000033  0.3333350119999992  0.1881880350995404
  0.6666650180000033  0.3333350119999992  0.6881880500995381
  0.6666650180000033  0.8333350420000016  0.1881880350995404
  0.6666650180000033  0.8333350420000016  0.6881880500995381
 
  0.00000000E+00  0.00000000E+00  0.00000000E+00
  0.00000000E+00  0.00000000E+00  0.00000000E+00
  0.00000000E+00  0.00000000E+00  0.00000000E+00
  0.00000000E+00  0.00000000E+00  0.00000000E+00
  0.00000000E+00  0.00000000E+00  0.00000000E+00
  0.00000000E+00  0.00000000E+00  0.00000000E+00
  0.00000000E+00  0.00000000E+00  0.00000000E+00
  0.00000000E+00  0.00000000E+00  0.00000000E+00
  0.00000000E+00  0.00000000E+00  0.00000000E+00
  0.00000000E+00  0.00000000E+00  0.00000000E+00
  0.00000000E+00  0.00000000E+00  0.00000000E+00
  0.00000000E+00  0.00000000E+00  0.00000000E+00
  0.00000000E+00  0.00000000E+00  0.00000000E+00
  0.00000000E+00  0.00000000E+00  0.00000000E+00
  0.00000000E+00  0.00000000E+00  0.00000000E+00
  0.00000000E+00  0.00000000E+00  0.00000000E+00
  0.00000000E+00  0.00000000E+00  0.00000000E+00
  0.00000000E+00  0.00000000E+00  0.00000000E+00
  0.00000000E+00  0.00000000E+00  0.00000000E+00
  0.00000000E+00  0.00000000E+00  0.00000000E+00
  0.00000000E+00  0.00000000E+00  0.00000000E+00
  0.00000000E+00  0.00000000E+00  0.00000000E+00
  0.00000000E+00  0.00000000E+00  0.00000000E+00
  0.00000000E+00  0.00000000E+00  0.00000000E+00
  0.00000000E+00  0.00000000E+00  0.00000000E+00
  0.00000000E+00  0.00000000E+00  0.00000000E+00
  0.00000000E+00  0.00000000E+00  0.00000000E+00
  0.00000000E+00  0.00000000E+00  0.00000000E+00
  0.00000000E+00  0.00000000E+00  0.00000000E+00
  0.00000000E+00  0.00000000E+00  0.00000000E+00
  0.00000000E+00  0.00000000E+00  0.00000000E+00
  0.00000000E+00  0.00000000E+00  0.00000000E+00
