/net/hulk/PMD/skwon/GaN/Wurtzite/vasp/U_ -- in P1.1
1.0
        6.1397337914         0.0000000000         0.0000000000
       -3.0698668957         5.3171654358         0.0000000000
        0.0000000000         0.0000000000         29.9662370682
   Ga    Mg    N
   14    1     14
Selective Dynamics
Direct
     0.333335012         0.166665003         0.41647333400         T   T   T
     0.333335012         0.166665003         0.58313999567         F   F   F
     0.333335012         0.666665018         0.41647333400         T   T   T
     0.333335012         0.666665018         0.58313999567         F   F   F
     0.833335042         0.166665003         0.41647333400         T   T   T
     0.833335042         0.166665003         0.58313999567         F   F   F
     0.833335042         0.666665018         0.41647333400         T   T   T
     0.833335042         0.666665018         0.58313999567         F   F   F
     0.166665003         0.333335012         0.49980666233         F   F   F
     0.166665003         0.333335012         0.66647332900         T   T   T
     0.166665003         0.833335042         0.49980666233         F   F   F
     0.166665003         0.833335042         0.66647332900         T   T   T
     0.666665018         0.333335012         0.49980666233         F   F   F
     0.666665018         0.333335012         0.66647332900         T   T   T
     0.666665018         0.833335042         0.49980666233         F   F   F
     0.333335012         0.166665003         0.47936000433         F   F   F
     0.333335012         0.166665003         0.64602667100         T   T   T
     0.333335012         0.666665018         0.47936000433         F   F   F
     0.333335012         0.666665018         0.64602667100         T   T   T
     0.833335042         0.166665003         0.47936000433         F   F   F
     0.833335042         0.166665003         0.64602667100         T   T   T
     0.833335042         0.666665018         0.47936000433         F   F   F
     0.166665003         0.333335012         0.39602666599         T   T   T
     0.166665003         0.333335012         0.56269333766         F   F   F
     0.166665003         0.833335042         0.39602666599         T   T   T
     0.166665003         0.833335042         0.56269333766         F   F   F
     0.666665018         0.333335012         0.56269333766         F   F   F
     0.666665018         0.833335042         0.39602666599         T   T   T
     0.666665018         0.833335042         0.56269333766         F   F   F