rbao water minimization                 
   1.00000000000000     
     6.1397337914000003    0.0000000000000000    0.0000000000000000
    -3.0698668957000002    5.3171654357999998    0.0000000000000000
     0.0000000000000000    0.0000000000000000   29.9662370682000017
   Ga   Mg   N    H    O 
    14     1    14     2     1
Selective dynamics
  0.3193616231539408  0.1591500243048332  0.4088463859490748   T   T   T
  0.3305041635780697  0.1677202967270830  0.5866825078943876   F   F   F
  0.3355340757721469  0.6688481400391715  0.4148923821778601   T   T   T
  0.3392648171437713  0.6672831315944876  0.5909443710561320   F   F   F
  0.8458038514935078  0.1644574008688820  0.4089838002864920   T   T   T
  0.8315017772047284  0.1585538057069158  0.5918853775540143   F   F   F
  0.8538723005461276  0.6851516236386769  0.4087117861330025   T   T   T
  0.8323859832769216  0.6689360378234142  0.5834414012108837   F   F   F
  0.1644845123638277  0.3371773042224930  0.4970992140434873   F   F   F
  0.1608589697570743  0.3484311288956923  0.6688585312363221   T   T   T
  0.1665560993907320  0.8302283388150329  0.4963030681881690   F   F   F
  0.1063619690888564  0.8102350638085424  0.6667337953293351   T   T   T
  0.6680943836601969  0.3337612712518592  0.4977439753747532   F   F   F
  0.6860060123530098  0.3499562334408947  0.6694416461280922   T   T   T
  0.6677617622623018  0.8352059340794469  0.4980277581612214   F   F   F
  0.3341456837826371  0.1682768594862694  0.4755702519653511   F   F   F
  0.3332099622395210  0.1721391212432511  0.6563298956486153   T   T   T
  0.3318766874643870  0.6666765201445202  0.4745128379988230   F   F   F
  0.3295271191857104  0.6886168258821070  0.6568188761092335   T   T   T
  0.8324556203792710  0.1725994584082997  0.4735437529119579   F   F   F
  0.8173282554593191  0.1311607401999864  0.6599125215842186   T   T   T
  0.8330774153658282  0.6613325361308782  0.4737979860837171   F   F   F
  0.1640391290080399  0.3201830402674697  0.3876402102447604   T   T   T
  0.1617150241691476  0.3348872584065887  0.5653680230975198   F   F   F
  0.1657813462233367  0.8493343832056828  0.3850212574986764   T   T   T
  0.1709086094558003  0.8321980372165356  0.5653569870329989   F   F   F
  0.6679413242891385  0.3285323898275934  0.5663892167016797   F   F   F
  0.6858107085023251  0.8398421180964286  0.3866527522466739   T   T   T
  0.6677796331687134  0.8328700009973673  0.5662938412616256   F   F   F
  0.3383941916425027  0.5346850901509482  0.3259134835815557   T   T   T
  0.3384975125466751  0.8049450981428597  0.3260081514340129   T   T   T
  0.3406010682970692  0.6683160856701291  0.3337045352046891   T   T   T
