rbao water minimization                 
   1.00000000000000     
     6.1397337914000003    0.0000000000000000    0.0000000000000000
    -3.0698668957000002    5.3171654357999998    0.0000000000000000
     0.0000000000000000    0.0000000000000000   29.9662370682000017
   Ga   Mg   N    H    O 
    14     1    14     4     2
Selective dynamics
  0.3186345361786068  0.1585167503903690  0.4082473538057005   T   T   T
  0.3305041635780697  0.1677202967270830  0.5866825078943876   F   F   F
  0.3378991292326938  0.6699956993291499  0.4078337849432370   T   T   T
  0.3392648171437713  0.6672831315944876  0.5909443710561320   F   F   F
  0.8435812477494823  0.1589249598529863  0.4085427527706367   T   T   T
  0.8315017772047284  0.1585538057069158  0.5918853775540143   F   F   F
  0.8520029238370194  0.6884418972090586  0.4082908630794967   T   T   T
  0.8323859832769216  0.6689360378234142  0.5834414012108837   F   F   F
  0.1644845123638277  0.3371773042224930  0.4970992140434873   F   F   F
  0.1620220135085155  0.3487711741865788  0.6688421310023566   T   T   T
  0.1665560993907320  0.8302283388150329  0.4963030681881690   F   F   F
  0.1068763396397282  0.8113292836042971  0.6668922263989964   T   T   T
  0.6680943836601969  0.3337612712518592  0.4977439753747532   F   F   F
  0.6867401435045712  0.3497305099875564  0.6695108715080841   T   T   T
  0.6677617622623018  0.8352059340794469  0.4980277581612214   F   F   F
  0.3341456837826371  0.1682768594862694  0.4755702519653511   F   F   F
  0.3329570355991713  0.1726495238074116  0.6563925296214562   T   T   T
  0.3318766874643870  0.6666765201445202  0.4745128379988230   F   F   F
  0.3288650956685673  0.6880360966597542  0.6568914633452129   T   T   T
  0.8324556203792710  0.1725994584082997  0.4735437529119579   F   F   F
  0.8165515535415548  0.1311669194833242  0.6599196950857876   T   T   T
  0.8330774153658282  0.6613325361308782  0.4737979860837171   F   F   F
  0.1731215360053698  0.3391587267591906  0.3859748934317984   T   T   T
  0.1617150241691476  0.3348872584065887  0.5653680230975198   F   F   F
  0.1783343334293799  0.8369950997706660  0.3825475852378730   T   T   T
  0.1709086094558003  0.8321980372165356  0.5653569870329989   F   F   F
  0.6679413242891385  0.3285323898275934  0.5663892167016797   F   F   F
  0.6695448235305073  0.8322498091355606  0.3850166344736176   T   T   T
  0.6677796331687134  0.8328700009973673  0.5662938412616256   F   F   F
  0.1736463184993217  0.4642812704928059  0.7827444793339650   T   T   T
  0.1578932966630008  0.2017472698397815  0.7831086463846669   T   T   T
  0.1790341680283858  0.5444067492930720  0.2877286605550955   T   T   T
  0.1704639324140396  0.7893250565231590  0.2908873339617572   T   T   T
  0.1696300552761659  0.3356611863792155  0.8021505278257799   T   T   T
  0.1539654665708114  0.6616064935047709  0.2697474985662079   T   T   T
