rbao water minimization
   1.00000000000000     
     6.1397337914000003    0.0000000000000000    0.0000000000000000
    -3.0698668957000002    5.3171654357999998    0.0000000000000000
     0.0000000000000000    0.0000000000000000   29.9662370682000017
   Ga    Mg    N    H
   14    1     14   2
Selective dynamics
Direct
  0.3154392618480873  0.1572991005774949  0.4081908686933938   T   T   T
  0.3305041635780722  0.1677202967270839  0.5866825078943855   F   F   F
  0.3314791575141903  0.6672997928644419  0.4080960758839676   T   T   T
  0.3392648171437709  0.6672831315944903  0.5909443710561305   F   F   F
  0.8453227827917206  0.1534794517421385  0.4088846015124374   T   T   T
  0.8315017772047265  0.1585538057069137  0.5918853775540147   F   F   F
  0.8489039763167104  0.6936845174764792  0.4085562563641762   T   T   T
  0.8323859832769205  0.6689360378234158  0.5834414012108845   F   F   F
  0.1644845123638294  0.3371773042224954  0.4970992140434905   F   F   F
  0.1583720300294481  0.3427424900565442  0.6679324938622745   T   T   T
  0.1665560993907350  0.8302283388150323  0.4963030681881671   F   F   F
  0.1264304970638511  0.8050212198365564  0.6650576860174068   T   T   T
  0.6680943836601968  0.3337612712518578  0.4977439753747560   F   F   F
  0.6926084502966020  0.3690512369782102  0.6660100360868038   T   T   T
  0.6677617622622998  0.8352059340794472  0.4980277581612195   F   F   F
  0.3341456837826356  0.1682768594862661  0.4755702519653491   F   F   F
  0.3323758846823040  0.1661683790180533  0.6568930271264687   T   T   T
  0.3318766874643898  0.6666765201445237  0.4745128379988255   F   F   F
  0.3558671638768039  0.6879902282393423  0.6583250576304553   T   T   T
  0.8324556203792712  0.1725994584082987  0.4735437529119557   F   F   F
  0.8114044211881111  0.1411892529560337  0.6593324400310799   T   T   T
  0.8330774153658302  0.6613325361308791  0.4737979860837154   F   F   F
  0.1713181214977237  0.3375849740545090  0.3849367795881317   T   T   T
  0.1617150241691468  0.3348872584065877  0.5653680230975192   F   F   F
  0.1732003344798299  0.8366393621271273  0.3831560725194444   T   T   T
  0.1709086094558008  0.8321980372165345  0.5653569870330010   F   F   F
  0.6679413242891420  0.3285323898275963  0.5663892167016795   F   F   F
  0.6616781995132849  0.8305506270490368  0.3838890397481025   T   T   T
  0.6677796331687136  0.8328700009973674  0.5662938412616274   F   F   F
  0.1583720300294481  0.3427424900565442  0.7079324938622745   T   T   T
  0.1713181214977237  0.3375849740545090  0.3449367795881317   T   T   T