rbao water minimization                 
   1.00000000000000     
     6.1397337914000003    0.0000000000000000    0.0000000000000000
    -3.0698668957000002    5.3171654357999998    0.0000000000000000
     0.0000000000000000    0.0000000000000000   29.9662370682000017
   Ga   Mg   N    H    O 
    14     1    14     4     2
Selective dynamics
  0.3410291496418740  0.1928869240379972  0.4088963106191127   T   T   T
  0.3305041635780697  0.1677202967270830  0.5866825078943876   F   F   F
  0.3493361541775390  0.6793491410973579  0.4090546453007232   T   T   T
  0.3392648171437713  0.6672831315944876  0.5909443710561320   F   F   F
  0.8532058384205946  0.1623038989823347  0.4084621795805949   T   T   T
  0.8315017772047284  0.1585538057069158  0.5918853775540143   F   F   F
  0.8410563989637559  0.6910995467813313  0.4090967660501197   T   T   T
  0.8323859832769216  0.6689360378234142  0.5834414012108837   F   F   F
  0.1644845123638277  0.3371773042224930  0.4970992140434873   F   F   F
  0.1572731633226082  0.3436617180084601  0.6661380190156181   T   T   T
  0.1665560993907320  0.8302283388150329  0.4963030681881690   F   F   F
  0.1010979462983863  0.8011400583796697  0.6645970413478010   T   T   T
  0.6680943836601969  0.3337612712518592  0.4977439753747532   F   F   F
  0.6776740477392859  0.3418761230334929  0.6686529438736245   T   T   T
  0.6677617622623018  0.8352059340794469  0.4980277581612214   F   F   F
  0.3341456837826371  0.1682768594862694  0.4755702519653511   F   F   F
  0.3263977220990237  0.1636717345804964  0.6552686299482723   T   T   T
  0.3318766874643870  0.6666765201445202  0.4745128379988230   F   F   F
  0.3320055952518557  0.6864153043113340  0.6572138624220558   T   T   T
  0.8324556203792710  0.1725994584082997  0.4735437529119579   F   F   F
  0.8124994413192195  0.1283479254889582  0.6592239204895748   T   T   T
  0.8330774153658282  0.6613325361308782  0.4737979860837171   F   F   F
  0.1780781166434458  0.3553419971331433  0.3837670407112427   T   T   T
  0.1617150241691476  0.3348872584065887  0.5653680230975198   F   F   F
  0.1830787664259948  0.8558489553915966  0.3933055031223483   T   T   T
  0.1709086094558003  0.8321980372165356  0.5653569870329989   F   F   F
  0.6679413242891385  0.3285323898275934  0.5663892167016797   F   F   F
  0.6710266722833818  0.8406742049134390  0.3835801559826680   T   T   T
  0.6677796331687134  0.8328700009973673  0.5662938412616256   F   F   F
  0.2059396999670449  0.4820775614095273  0.7346665633586617   T   T   T
  0.1488985862840115  0.2048447656537670  0.7337715482317236   T   T   T
  0.1593945428903136  0.5089230729004911  0.3291398010976692   T   T   T
  0.1747933225075789  0.7604327841594715  0.3375038014994189   T   T   T
  0.1782691715455834  0.3384062574373988  0.7535265154212679   T   T   T
  0.1229464590558218  0.6285990614332874  0.3146259571438887   T   T   T
