/net/hulk/PMD/skwon/GaN/Wurtzite/vasp/U_
   1.00000000000000     
     3.0698673668414140    0.0000000000000000    0.0000000000000000
    -1.5349336834207070    2.6585831259255031    0.0000000000000000
     0.0000000000000000    0.0000000000000000    4.9943732648665176
   Ga   N 
     2     2
Direct
  0.6666670179999983  0.3333329900000024  0.4988386026383651
  0.3333329849999984  0.6666670159999981  0.9988386486383689
  0.6666670179999983  0.3333329900000024  0.8761613743616365
  0.3333329849999984  0.6666670159999981  0.3761613743616365
 
  0.00000000E+00  0.00000000E+00  0.00000000E+00
  0.00000000E+00  0.00000000E+00  0.00000000E+00
  0.00000000E+00  0.00000000E+00  0.00000000E+00
  0.00000000E+00  0.00000000E+00  0.00000000E+00
