/net/hulk/PMD/skwon/GaN/Wurtzite/vasp/U_ -- in P1.1
1.0
        6.1397337914         0.0000000000         0.0000000000
       -3.0698668957         5.3171654358         0.0000000000
        0.0000000000         0.0000000000         9.9887456894
   Ga    N
   16   16
Direct
     0.333335012         0.166665003         0.249420002
     0.333335012         0.166665003         0.749419987
     0.333335012         0.666665018         0.249420002
     0.333335012         0.666665018         0.749419987
     0.833335042         0.166665003         0.249420002
     0.833335042         0.166665003         0.749419987
     0.833335042         0.666665018         0.249420002
     0.833335042         0.666665018         0.749419987
     0.166665003         0.333335012         0.499419987
     0.166665003         0.333335012         0.999419987
     0.166665003         0.833335042         0.499419987
     0.166665003         0.833335042         0.999419987
     0.666665018         0.333335012         0.499419987
     0.666665018         0.333335012         0.999419987
     0.666665018         0.833335042         0.499419987
     0.666665018         0.833335042         0.999419987
     0.333335012         0.166665003         0.438080013
     0.333335012         0.166665003         0.938080013
     0.333335012         0.666665018         0.438080013
     0.333335012         0.666665018         0.938080013
     0.833335042         0.166665003         0.438080013
     0.833335042         0.166665003         0.938080013
     0.833335042         0.666665018         0.438080013
     0.833335042         0.666665018         0.938080013
     0.166665003         0.333335012         0.188079998
     0.166665003         0.333335012         0.688080013
     0.166665003         0.833335042         0.188079998
     0.166665003         0.833335042         0.688080013
     0.666665018         0.333335012         0.188079998
     0.666665018         0.333335012         0.688080013
     0.666665018         0.833335042         0.188079998
     0.666665018         0.833335042         0.688080013
