/net/hulk/PMD/skwon/GaN/Wurtzite/vasp/U_ -- in P1.1
1.0
        6.1397337914         0.0000000000         0.0000000000
       -3.0698668957         5.3171654358         0.0000000000
        0.0000000000         0.0000000000         29.9662370682
   Ga    Mg    N
   15    1     15
Direct
     0.333335012         0.166665003         0.74980666732
     0.333335012         0.166665003         0.91647332899
     0.333335012         0.666665018         0.74980666732
     0.333335012         0.666665018         0.91647332899
     0.833335042         0.166665003         0.74980666732
     0.833335042         0.166665003         0.91647332899
     0.833335042         0.666665018         0.74980666732
     0.833335042         0.666665018         0.91647332899
     0.166665003         0.333335012         0.83313999566
     0.166665003         0.333335012         0.99980666232
     0.166665003         0.833335042         0.83313999566
     0.166665003         0.833335042         0.99980666232
     0.666665018         0.333335012         0.83313999566
     0.666665018         0.333335012         0.99980666232
     0.666665018         0.833335042         0.99980666232
     0.666665018         0.833335042         0.83313999566
     0.333335012         0.166665003         0.81269333766
     0.333335012         0.166665003         0.97936000432
     0.333335012         0.666665018         0.81269333766
     0.333335012         0.666665018         0.97936000432
     0.833335042         0.166665003         0.81269333766
     0.833335042         0.166665003         0.97936000432
     0.833335042         0.666665018         0.81269333766
     0.833335042         0.666665018         0.97936000432
     0.166665003         0.333335012         0.72935999932
     0.166665003         0.333335012         0.89602667099
     0.166665003         0.833335042         0.72935999932
     0.166665003         0.833335042         0.89602667099
     0.666665018         0.333335012         0.89602667099
     0.666665018         0.833335042         0.72935999932
     0.666665018         0.833335042         0.89602667099
